====================================================================================================================
File name: 100_10_47_9.def
Creation date: Mon Nov 24 20:40:29 CET 2014
Website: http://imopse.ii.pwr.edu.pl/
Reference:
Myszkowski P. B., Skowronski M. E., Olech L., Oslizlo K.,
Hybrid Ant Colony Optimization in solving Multi-Skill Resource-Constrained Project Scheduling Problem,
Soft Computing, DOI: DOI 10.1007/s00500-014-1455-x
====================================================================================================================
General characteristics:
Tasks: 100
Resources: 10
Precedence relations: 47
Number of skill types: 9
====================================================================================================================
ResourceID 	 Salary 	 Skills
1	 	 	47.7	 	 Q0: 2 	  Q4: 0 	  Q7: 2 	  Q5: 1 	  Q1: 1 	  Q6: 1
2	 	 	65.1	 	 Q1: 2 	  Q4: 1 	  Q0: 0 	  Q3: 1 	  Q2: 2 	  Q8: 1
3	 	 	49.5	 	 Q8: 1 	  Q0: 1 	  Q3: 0 	  Q2: 2 	  Q6: 0 	  Q1: 2
4	 	 	36.0	 	 Q8: 0 	  Q7: 2 	  Q6: 0 	  Q1: 1 	  Q5: 0 	  Q0: 0
5	 	 	72.2	 	 Q4: 2 	  Q5: 0 	  Q6: 2 	  Q2: 1 	  Q7: 1 	  Q1: 1
6	 	 	25.4	 	 Q5: 0 	  Q2: 0 	  Q0: 0 	  Q6: 1 	  Q8: 0 	  Q3: 2
7	 	 	67.0	 	 Q7: 2 	  Q0: 2 	  Q1: 1 	  Q3: 1 	  Q2: 0 	  Q5: 1
8	 	 	56.2	 	 Q5: 0 	  Q7: 0 	  Q2: 1 	  Q4: 0 	  Q8: 1 	  Q6: 2
9	 	 	80.4	 	 Q3: 1 	  Q0: 2 	  Q4: 0 	  Q2: 1 	  Q8: 2 	  Q6: 1
10	 	 	77.8	 	 Q2: 0 	  Q8: 1 	  Q0: 2 	  Q4: 1 	  Q1: 0 	  Q5: 0
====================================================================================================================
TaskID 	 Duration 	 Skill 	 Predecessor IDs
1	 	 	37	 Q0: 0
2	 	 	22	 Q5: 1
3	 	 	35	 Q5: 1
4	 	 	18	 Q0: 0
5	 	 	16	 Q0: 1
6	 	 	27	 Q7: 0
7	 	 	31	 Q0: 1
8	 	 	35	 Q7: 2
9	 	 	25	 Q6: 0
10	 	 	39	 Q0: 1
11	 	 	19	 Q1: 0
12	 	 	34	 Q7: 1
13	 	 	12	 Q2: 1
14	 	 	17	 Q3: 2	 	3
15	 	 	30	 Q4: 0
16	 	 	18	 Q4: 2
17	 	 	30	 Q3: 2
18	 	 	29	 Q3: 0
19	 	 	27	 Q1: 1
20	 	 	22	 Q7: 2
21	 	 	26	 Q1: 1
22	 	 	22	 Q0: 1	 	11	1
23	 	 	35	 Q0: 0
24	 	 	13	 Q2: 2
25	 	 	13	 Q3: 0	 	23
26	 	 	24	 Q2: 2
27	 	 	22	 Q0: 0
28	 	 	17	 Q0: 1
29	 	 	14	 Q1: 0
30	 	 	22	 Q2: 0	 	25
31	 	 	8	 Q7: 0
32	 	 	27	 Q3: 0
33	 	 	39	 Q8: 0
34	 	 	20	 Q0: 0
35	 	 	36	 Q3: 0
36	 	 	14	 Q3: 0
37	 	 	13	 Q7: 2	 	29
38	 	 	32	 Q5: 1
39	 	 	27	 Q6: 2
40	 	 	29	 Q3: 0
41	 	 	40	 Q8: 0	 	9
42	 	 	31	 Q3: 0
43	 	 	26	 Q6: 0	 	11
44	 	 	29	 Q4: 2
45	 	 	39	 Q1: 1
46	 	 	39	 Q3: 0
47	 	 	29	 Q1: 0	 	23
48	 	 	28	 Q0: 2	 	7
49	 	 	25	 Q1: 1	 	46
50	 	 	22	 Q4: 1
51	 	 	34	 Q7: 0
52	 	 	25	 Q0: 1	 	38
53	 	 	11	 Q6: 1	 	4
54	 	 	40	 Q1: 2	 	2
55	 	 	33	 Q2: 0	 	1
56	 	 	28	 Q7: 0	 	15
57	 	 	9	 Q3: 1
58	 	 	11	 Q6: 0
59	 	 	27	 Q6: 0	 	28
60	 	 	25	 Q4: 0
61	 	 	10	 Q1: 1	 	8
62	 	 	30	 Q7: 2
63	 	 	23	 Q8: 0	 	61
64	 	 	12	 Q8: 2
65	 	 	18	 Q8: 1
66	 	 	17	 Q8: 0
67	 	 	21	 Q6: 0
68	 	 	11	 Q0: 0
69	 	 	40	 Q4: 1	 	66	29	22	52
70	 	 	23	 Q3: 0
71	 	 	34	 Q5: 0
72	 	 	14	 Q1: 2	 	24
73	 	 	14	 Q3: 0	 	45
74	 	 	23	 Q3: 2	 	61
75	 	 	31	 Q3: 1	 	34	3	6
76	 	 	29	 Q8: 0
77	 	 	36	 Q3: 2	 	5
78	 	 	14	 Q6: 0
79	 	 	28	 Q1: 0	 	4
80	 	 	29	 Q5: 1
81	 	 	9	 Q5: 1	 	52
82	 	 	19	 Q8: 2	 	40	77
83	 	 	22	 Q0: 0	 	75
84	 	 	30	 Q2: 1
85	 	 	20	 Q8: 2
86	 	 	34	 Q6: 1	 	5
87	 	 	20	 Q0: 1
88	 	 	25	 Q7: 1
89	 	 	36	 Q6: 2	 	78	47
90	 	 	16	 Q1: 0	 	13
91	 	 	39	 Q6: 1
92	 	 	40	 Q4: 1	 	86	17
93	 	 	28	 Q3: 1	 	41
94	 	 	27	 Q6: 0
95	 	 	31	 Q1: 0	 	35
96	 	 	29	 Q8: 0
97	 	 	19	 Q5: 1	 	28
98	 	 	25	 Q6: 0	 	60
99	 	 	20	 Q0: 0	 	26
100	 	 	36	 Q3: 1	 	25
====================================================================================================================
